
Gurobi 10.0.0 (linux64, Python) logging started Sat Dec 31 15:35:21 2022

Set parameter LogFile to value "gurobi.log"

Gurobi 10.0.0 (linux64, Python) logging started Sat Dec 31 15:39:45 2022

Set parameter LogFile to value "gurobi.log"

Gurobi 10.0.0 (linux64, Python) logging started Sat Dec 31 15:41:10 2022

Set parameter LogFile to value "gurobi.log"

Gurobi 10.0.0 (linux64, Python) logging started Sat Dec 31 15:41:24 2022

Set parameter Username
Set parameter LogFile to value "gurobi.log"
Academic license - for non-commercial use only - expires 2023-11-15
